<number of tasks>
58

<cycle time>
82

<task times>
1 10
2 53
3 41
4 36
5 35
6 17
7 34
8 23
9 14
10 52
11 33
12 34
13 12
14 52
15 12
16 33
17 44
18 7
19 15
20 13
21 29
22 37
23 43
24 23
25 24
26 9
27 16
28 12
29 26
30 22
31 51
32 47
33 34
34 23
35 12
36 52
37 12
38 33
39 44
40 7
41 15
42 13
43 29
44 37
45 43
46 23
47 24
48 9
49 16
50 12
51 26
52 12
53 52
54 12
55 33
56 44
57 7
58 15

<precedence relations>
1,9
2,25
3,21
3,22
4,10
5,36
6,23
6,24
7,43
8,44
9,11
11,13
11,14
11,15
12,17
13,17
14,17
15,17
16,18
17,20
18,19
19,23
20,21
20,25
21,26
21,44
22,27
23,31
24,31
25,38
26,29
27,30
28,32
28,33
29,31
30,34
31,36
32,45
33,35
34,36
35,43
36,37
36,38
37,39
37,40
37,41
38,52
39,43
40,43
41,42
42,43
43,45
44,45
45,46
45,48
45,49
46,47
46,50
47,51
48,55
49,58
50,58
51,52
52,53
53,54
54,55
54,56
55,57
56,57
57,58

<setup times forward>
1,2:4
1,3:14
1,6:4
1,7:6
1,8:6
1,9:7
1,10:3
1,12:7
1,16:14
1,18:14
1,19:3
1,22:9
1,23:9
1,24:6
1,28:4
1,32:2
1,33:7
1,34:8
1,35:3
2,1:4
2,3:10
2,4:4
2,5:4
2,7:2
2,8:2
2,9:3
2,10:1
2,11:6
2,12:3
2,13:9
2,14:9
2,15:9
2,16:10
2,17:4
2,18:10
2,19:1
2,20:12
2,21:12
2,22:5
2,23:5
2,24:2
2,25:3
2,26:12
2,27:4
2,29:2
2,30:4
2,31:2
2,32:6
2,33:3
2,34:12
2,35:1
2,36:3
2,37:7
2,39:14
2,40:12
2,41:7
2,42:7
2,43:12
2,44:7
2,45:12
2,46:9
2,47:9
2,48:2
2,49:2
2,50:7
2,51:9
3,1:14
3,2:10
3,4:14
3,5:14
3,6:10
3,7:8
3,8:8
3,9:7
3,10:11
3,11:16
3,12:7
3,13:19
3,14:19
3,15:19
3,17:14
3,19:11
3,20:22
3,21:22
3,22:5
3,23:5
3,24:8
3,25:7
3,28:10
3,32:16
3,33:7
3,35:11
4,2:4
4,3:14
4,6:4
4,7:6
4,8:6
4,9:7
4,10:3
4,11:2
4,12:7
4,13:5
4,14:5
4,15:5
4,16:14
4,18:14
4,19:3
4,20:8
4,21:8
4,22:9
4,23:9
4,24:6
4,25:7
4,26:8
4,28:4
4,29:2
4,31:2
4,32:2
4,33:7
4,34:8
4,35:3
4,36:7
4,37:11
4,38:10
4,39:10
4,40:8
4,41:11
4,42:11
4,43:8
4,44:11
4,45:8
4,46:13
4,47:13
4,48:6
4,49:6
4,50:11
4,51:13
4,52:1
4,53:1
4,54:6
4,55:6
4,56:11
4,57:11
4,58:11
5,2:4
5,3:14
5,6:4
5,7:6
5,8:6
5,9:7
5,10:3
5,11:2
5,12:7
5,13:5
5,14:5
5,15:5
5,16:14
5,18:14
5,19:3
5,20:8
5,21:8
5,22:9
5,23:9
5,24:6
5,25:7
5,26:8
5,28:4
5,29:2
5,31:2
5,32:2
5,33:7
5,34:8
5,35:3
5,36:7
5,44:11
6,1:4
6,3:10
6,4:4
6,5:4
6,7:2
6,8:2
6,9:3
6,10:1
6,11:6
6,12:3
6,13:9
6,14:9
6,15:9
6,16:10
6,17:4
6,18:10
6,19:1
6,20:12
6,21:12
6,22:5
6,23:5
6,24:2
6,25:3
6,26:12
6,27:4
6,29:2
6,30:4
6,32:6
6,33:3
6,34:12
6,35:1
6,44:7
7,1:6
7,2:2
7,3:8
7,4:6
7,5:6
7,6:2
7,9:1
7,10:3
7,11:8
7,12:1
7,13:11
7,14:11
7,15:11
7,16:8
7,17:6
7,18:8
7,19:3
7,20:14
7,21:14
7,22:3
7,23:3
7,25:1
7,26:14
7,27:6
7,28:2
7,29:4
7,30:6
7,31:4
7,32:8
7,33:1
7,34:14
7,35:3
7,36:1
7,37:5
7,38:16
7,39:16
7,40:14
7,41:5
7,42:5
7,43:14
7,44:5
8,1:6
8,2:2
8,3:8
8,4:6
8,5:6
8,6:2
8,9:1
8,10:3
8,11:8
8,12:1
8,13:11
8,14:11
8,15:11
8,16:8
8,17:6
8,18:8
8,19:3
8,20:14
8,21:14
8,22:3
8,23:3
8,25:1
8,26:14
8,27:6
8,28:2
8,29:4
8,30:6
8,31:4
8,32:8
8,33:1
8,34:14
8,35:3
8,36:1
8,37:5
8,38:16
8,39:16
8,40:14
8,41:5
8,42:5
8,43:14
8,44:5
9,2:3
9,3:7
9,4:7
9,5:7
9,6:3
9,7:1
9,8:1
9,10:4
9,11:9
9,16:7
9,18:7
9,19:4
9,22:2
9,23:2
9,24:1
9,27:7
9,28:3
9,30:7
9,32:9
9,34:15
9,35:4
10,1:3
10,2:1
10,3:11
10,5:3
10,6:1
10,7:3
10,8:3
10,9:4
10,11:5
10,12:4
10,13:8
10,14:8
10,15:8
10,16:11
10,17:3
10,18:11
10,20:11
10,21:11
10,22:6
10,23:6
10,24:3
10,25:4
10,26:11
10,27:3
10,28:1
10,29:1
10,30:3
10,31:1
10,32:5
10,33:4
10,34:11
10,36:4
10,37:8
10,38:13
10,39:13
10,40:11
10,41:8
10,42:8
10,43:11
10,44:8
10,45:11
10,46:10
10,47:10
10,48:3
10,49:3
10,50:8
10,51:10
10,52:2
10,53:2
10,54:3
10,55:3
10,56:8
10,57:8
10,58:8
11,2:6
11,3:16
11,4:2
11,5:2
11,6:6
11,7:8
11,8:8
11,10:5
11,12:9
11,13:3
11,14:3
11,15:3
11,16:16
11,18:16
11,19:5
11,22:11
11,23:11
11,24:8
11,27:2
11,28:6
11,30:2
11,33:9
11,34:6
11,35:5
12,1:7
12,2:3
12,3:7
12,4:7
12,5:7
12,6:3
12,7:1
12,8:1
12,10:4
12,11:9
12,13:12
12,14:12
12,15:12
12,16:7
12,17:7
12,18:7
12,19:4
12,22:2
12,23:2
12,24:1
12,27:7
12,28:3
12,30:7
12,32:9
12,34:15
12,35:4
13,2:9
13,3:19
13,4:5
13,5:5
13,6:9
13,7:11
13,8:11
13,10:8
13,12:12
13,16:19
13,17:5
13,18:19
13,19:8
13,22:14
13,23:14
13,24:11
13,27:5
13,28:9
13,30:5
13,32:3
13,33:12
13,34:3
13,35:8
14,2:9
14,3:19
14,4:5
14,5:5
14,6:9
14,7:11
14,8:11
14,10:8
14,12:12
14,16:19
14,17:5
14,18:19
14,19:8
14,22:14
14,23:14
14,24:11
14,27:5
14,28:9
14,30:5
14,32:3
14,33:12
14,34:3
14,35:8
15,2:9
15,3:19
15,4:5
15,5:5
15,6:9
15,7:11
15,8:11
15,10:8
15,12:12
15,16:19
15,17:5
15,18:19
15,19:8
15,22:14
15,23:14
15,24:11
15,27:5
15,28:9
15,30:5
15,32:3
15,33:12
15,34:3
15,35:8
16,1:14
16,2:10
16,4:14
16,5:14
16,6:10
16,7:8
16,8:8
16,9:7
16,10:11
16,11:16
16,12:7
16,13:19
16,14:19
16,15:19
16,17:14
16,20:22
16,21:22
16,22:5
16,24:8
16,25:7
16,26:22
16,27:14
16,28:10
16,29:12
16,30:14
16,32:16
16,33:7
16,34:22
16,35:11
16,44:3
17,2:4
17,3:14
17,6:4
17,7:6
17,8:6
17,10:3
17,16:14
17,18:14
17,19:3
17,20:8
17,22:9
17,23:9
17,24:6
17,28:4
17,32:2
17,33:7
17,34:8
17,35:3
18,1:14
18,2:10
18,4:14
18,5:14
18,6:10
18,7:8
18,8:8
18,9:7
18,10:11
18,11:16
18,12:7
18,13:19
18,14:19
18,15:19
18,17:14
18,19:11
18,20:22
18,21:22
18,22:5
18,24:8
18,25:7
18,26:22
18,27:14
18,28:10
18,29:12
18,30:14
18,32:16
18,33:7
18,34:22
18,35:11
18,44:3
19,1:3
19,2:1
19,3:11
19,4:3
19,5:3
19,6:1
19,7:3
19,8:3
19,9:4
19,11:5
19,12:4
19,13:8
19,14:8
19,15:8
19,17:3
19,20:11
19,21:11
19,22:6
19,23:6
19,24:3
19,25:4
19,26:11
19,27:3
19,28:1
19,29:1
19,30:3
19,32:5
19,33:4
19,34:11
19,44:8
20,2:12
20,3:22
20,4:8
20,5:8
20,6:12
20,7:14
20,8:14
20,10:11
20,16:22
20,18:22
20,19:11
20,22:17
20,23:17
20,24:14
20,25:15
20,27:8
20,28:12
20,30:8
20,32:6
20,33:15
20,35:11
21,2:12
21,4:8
21,5:8
21,6:12
21,7:14
21,8:14
21,10:11
21,16:22
21,18:22
21,19:11
21,22:17
21,23:17
21,24:14
21,25:15
21,27:8
21,28:12
21,30:8
21,32:6
21,33:15
21,35:11
21,44:19
22,1:9
22,2:5
22,4:9
22,5:9
22,6:5
22,7:3
22,8:3
22,9:2
22,10:6
22,11:11
22,12:2
22,13:14
22,14:14
22,15:14
22,16:5
22,17:9
22,18:5
22,19:6
22,20:17
22,21:17
22,24:3
22,25:2
22,26:17
22,27:9
22,28:5
22,29:7
22,31:7
22,32:11
22,33:2
22,35:6
22,44:2
23,1:9
23,2:5
23,3:5
23,4:9
23,5:9
23,7:3
23,8:3
23,9:2
23,10:6
23,11:11
23,12:2
23,13:14
23,14:14
23,15:14
23,17:9
23,20:17
23,21:17
23,24:3
23,25:2
23,26:17
23,27:9
23,28:5
23,29:7
23,30:9
23,31:7
23,32:11
23,33:2
23,34:17
23,35:6
23,44:2
24,1:6
24,2:2
24,3:8
24,4:6
24,5:6
24,9:1
24,10:3
24,11:8
24,12:1
24,13:11
24,14:11
24,15:11
24,16:8
24,17:6
24,18:8
24,19:3
24,20:14
24,21:14
24,22:3
24,23:3
24,25:1
24,26:14
24,27:6
24,28:2
24,29:4
24,30:6
24,31:4
24,32:8
24,33:1
24,34:14
24,35:3
24,44:5
25,3:7
25,4:7
25,5:7
25,6:3
25,7:1
25,8:1
25,10:4
25,16:7
25,18:7
25,19:4
25,21:15
25,22:2
25,23:2
25,24:1
25,26:15
25,27:7
25,28:3
25,29:5
25,30:7
25,31:5
25,32:9
25,34:15
25,35:4
25,37:4
25,38:17
25,39:17
25,40:15
25,41:4
25,42:4
25,43:15
25,44:4
25,45:15
25,46:6
25,47:6
25,48:1
25,49:1
25,50:4
25,51:6
26,2:12
26,4:8
26,5:8
26,6:12
26,7:14
26,8:14
26,10:11
26,16:22
26,18:22
26,19:11
26,22:17
26,23:17
26,24:14
26,25:15
26,27:8
26,28:12
26,29:10
26,30:8
26,32:6
26,33:15
26,35:11
26,44:19
27,2:4
27,6:4
27,7:6
27,8:6
27,9:7
27,10:3
27,11:2
27,12:7
27,13:5
27,14:5
27,15:5
27,16:14
27,18:14
27,19:3
27,20:8
27,21:8
27,23:9
27,24:6
27,25:7
27,26:8
27,28:4
27,29:2
27,31:2
27,32:2
27,33:7
27,35:3
27,44:11
28,1:4
28,3:10
28,4:4
28,5:4
28,7:2
28,8:2
28,9:3
28,10:1
28,11:6
28,12:3
28,13:9
28,14:9
28,15:9
28,16:10
28,17:4
28,18:10
28,19:1
28,20:12
28,21:12
28,22:5
28,23:5
28,24:2
28,25:3
28,26:12
28,27:4
28,29:2
28,30:4
28,31:2
28,32:6
28,33:3
28,34:12
28,36:3
28,37:7
28,38:14
28,39:14
28,40:12
28,41:7
28,42:7
28,44:7
29,2:2
29,4:2
29,5:2
29,6:2
29,7:4
29,8:4
29,10:1
29,16:12
29,18:12
29,19:1
29,22:7
29,23:7
29,24:4
29,25:5
29,27:2
29,28:2
29,30:2
29,32:4
29,33:5
29,34:10
29,35:1
29,44:9
30,2:4
30,6:4
30,7:6
30,8:6
30,9:7
30,10:3
30,11:2
30,12:7
30,13:5
30,14:5
30,15:5
30,16:14
30,18:14
30,19:3
30,20:8
30,21:8
30,23:9
30,24:6
30,25:7
30,26:8
30,28:4
30,29:2
30,31:2
30,32:2
30,33:7
30,34:8
30,35:3
30,44:11
31,2:2
31,4:2
31,5:2
31,7:4
31,8:4
31,10:1
31,22:7
31,25:5
31,27:2
31,28:2
31,30:2
31,32:4
31,33:5
31,34:10
31,35:1
31,36:5
31,44:9
32,1:2
32,2:6
32,3:16
32,4:2
32,5:2
32,6:6
32,7:8
32,8:8
32,9:9
32,10:5
32,12:9
32,13:3
32,14:3
32,15:3
32,16:16
32,17:2
32,18:16
32,19:5
32,20:6
32,21:6
32,22:11
32,23:11
32,24:8
32,25:9
32,26:6
32,27:2
32,29:4
32,30:2
32,31:4
32,33:9
32,34:6
32,35:5
32,36:9
32,37:13
32,38:8
32,39:8
32,40:6
32,41:13
32,42:13
32,43:6
32,44:13
32,45:6
33,1:7
33,2:3
33,3:7
33,4:7
33,5:7
33,6:3
33,7:1
33,8:1
33,10:4
33,11:9
33,13:12
33,14:12
33,15:12
33,16:7
33,17:7
33,18:7
33,19:4
33,20:15
33,21:15
33,22:2
33,23:2
33,24:1
33,26:15
33,27:7
33,29:5
33,30:7
33,31:5
33,32:9
33,34:15
33,35:4
33,37:4
33,38:17
33,39:17
33,40:15
33,41:4
33,42:4
33,44:4
34,1:8
34,2:12
34,4:8
34,5:8
34,6:12
34,7:14
34,8:14
34,9:15
34,10:11
34,11:6
34,12:15
34,13:3
34,14:3
34,15:3
34,16:22
34,17:8
34,18:22
34,19:11
34,23:17
34,24:14
34,25:15
34,28:12
34,29:10
34,31:10
34,32:6
34,33:15
34,35:11
34,36:15
34,44:19
35,1:3
35,2:1
35,3:11
35,4:3
35,5:3
35,6:1
35,7:3
35,8:3
35,9:4
35,11:5
35,12:4
35,13:8
35,14:8
35,15:8
35,16:11
35,17:3
35,18:11
35,20:11
35,21:11
35,22:6
35,23:6
35,24:3
35,25:4
35,26:11
35,27:3
35,29:1
35,30:3
35,31:1
35,32:5
35,34:11
35,36:4
35,37:8
35,38:13
35,39:13
35,40:11
35,41:8
35,42:8
35,43:11
35,44:8
36,2:3
36,4:7
36,7:1
36,8:1
36,10:4
36,28:3
36,32:9
36,35:4
36,37:4
36,38:17
36,44:4
37,2:7
37,4:11
37,7:5
37,8:5
37,10:8
37,25:4
37,28:7
37,32:13
37,33:4
37,35:8
37,38:21
37,39:21
37,40:19
38,4:10
38,7:16
38,8:16
38,10:13
38,28:14
38,32:8
38,33:17
38,35:13
38,37:21
38,40:2
38,41:21
38,42:21
38,43:2
38,44:21
38,45:2
38,46:23
38,47:23
38,48:16
38,49:16
38,50:21
38,51:23
38,52:11
39,2:14
39,4:10
39,7:16
39,8:16
39,10:13
39,25:17
39,28:14
39,32:8
39,33:17
39,35:13
39,40:2
39,41:21
39,42:21
39,43:2
39,44:21
40,2:12
40,4:8
40,7:14
40,8:14
40,10:11
40,25:15
40,28:12
40,32:6
40,33:15
40,35:11
40,38:2
40,39:2
40,41:19
40,42:19
40,44:19
41,2:7
41,4:11
41,7:5
41,8:5
41,10:8
41,25:4
41,28:7
41,32:13
41,33:4
41,35:8
41,38:21
41,39:21
41,40:19
42,2:7
42,4:11
42,7:5
42,8:5
42,10:8
42,25:4
42,28:7
42,32:13
42,33:4
42,35:8
42,38:21
42,39:21
42,40:19
42,43:19
43,2:12
43,4:8
43,8:14
43,10:11
43,25:15
43,32:6
43,38:2
43,44:19
44,2:7
44,4:11
44,5:11
44,6:7
44,7:5
44,10:8
44,16:3
44,18:3
44,19:8
44,22:2
44,23:2
44,24:5
44,25:4
44,26:19
44,27:11
44,28:7
44,29:9
44,30:11
44,31:9
44,32:13
44,33:4
44,34:19
44,35:8
44,36:4
44,38:21
44,39:21
44,40:19
44,43:19
44,45:19
45,2:12
45,4:8
45,10:11
45,25:15
45,38:2
45,46:21
45,48:14
45,49:14
46,2:9
46,4:13
46,10:10
46,25:6
46,38:23
46,48:7
46,49:7
46,50:2
47,2:9
47,4:13
47,10:10
47,25:6
47,38:23
47,48:7
47,49:7
47,50:2
48,2:2
48,4:6
48,10:3
48,25:1
48,38:16
48,46:7
48,47:7
48,50:5
48,51:7
48,52:5
48,53:5
48,56:5
49,2:2
49,4:6
49,10:3
49,25:1
49,38:16
49,46:7
49,47:7
49,50:5
49,51:7
49,52:5
49,53:5
49,56:5
49,57:5
49,58:5
50,2:7
50,4:11
50,10:8
50,25:4
50,38:21
50,47:2
50,48:5
50,49:5
50,51:2
50,52:10
50,53:10
50,54:5
50,55:5
51,2:9
51,4:13
51,10:10
51,25:6
51,38:23
51,48:7
51,49:7
51,50:2
51,52:12
52,4:1
52,10:2
52,48:5
52,49:5
52,50:10
53,4:1
53,10:2
53,48:5
53,49:5
53,50:10
53,54:5
54,4:6
54,10:3
54,50:5
54,56:5
55,4:6
55,10:3
55,50:5
55,56:5
55,57:5
56,4:11
56,10:8
56,48:5
56,49:5
56,55:5
57,4:11
57,10:8
57,49:5
58,4:11
58,10:8

<setup times backward>
1,32:2
1,34:8
2,1:4
2,4:4
2,5:4
2,10:1
2,11:6
2,13:9
2,14:9
2,15:9
2,17:4
2,19:1
2,20:12
2,21:12
2,26:12
2,27:4
2,29:2
2,30:4
2,31:2
2,32:6
2,34:12
2,35:1
2,39:14
2,40:12
2,43:12
2,45:12
3,1:14
3,2:10
3,4:14
3,5:14
3,6:10
3,7:8
3,8:8
3,9:7
3,10:11
3,11:16
3,12:7
3,13:19
3,14:19
3,15:19
3,17:14
3,19:11
3,20:22
3,23:5
3,24:8
3,25:7
3,28:10
3,32:16
3,33:7
3,35:11
4,11:2
4,13:5
4,14:5
4,15:5
4,20:8
4,21:8
4,26:8
4,32:2
4,34:8
4,38:10
4,39:10
4,40:8
4,43:8
4,45:8
5,11:2
5,13:5
5,14:5
5,15:5
5,20:8
5,21:8
5,26:8
5,32:2
5,34:8
6,1:4
6,4:4
6,5:4
6,10:1
6,11:6
6,13:9
6,14:9
6,15:9
6,17:4
6,19:1
6,20:12
6,21:12
6,26:12
6,27:4
6,29:2
6,30:4
6,32:6
6,34:12
6,35:1
7,1:6
7,2:2
7,4:6
7,5:6
7,6:2
7,10:3
7,11:8
7,13:11
7,14:11
7,15:11
7,17:6
7,19:3
7,20:14
7,21:14
7,26:14
7,27:6
7,28:2
7,29:4
7,30:6
7,31:4
7,32:8
7,34:14
7,35:3
7,38:16
7,39:16
7,40:14
8,1:6
8,2:2
8,4:6
8,5:6
8,6:2
8,10:3
8,11:8
8,13:11
8,14:11
8,15:11
8,17:6
8,19:3
8,20:14
8,21:14
8,26:14
8,27:6
8,28:2
8,29:4
8,30:6
8,31:4
8,32:8
8,34:14
8,35:3
8,38:16
8,39:16
8,40:14
8,43:14
9,1:7
9,2:3
9,4:7
9,5:7
9,6:3
9,7:1
9,8:1
9,10:4
9,19:4
9,24:1
9,27:7
9,28:3
9,30:7
9,32:9
9,34:15
9,35:4
10,1:3
10,4:3
10,5:3
10,11:5
10,13:8
10,14:8
10,15:8
10,17:3
10,20:11
10,21:11
10,26:11
10,27:3
10,29:1
10,30:3
10,31:1
10,32:5
10,34:11
10,38:13
10,39:13
10,40:11
10,43:11
10,45:11
10,52:2
10,53:2
11,34:6
12,1:7
12,2:3
12,4:7
12,5:7
12,6:3
12,7:1
12,8:1
12,10:4
12,11:9
12,13:12
12,14:12
12,15:12
12,19:4
12,24:1
12,27:7
12,28:3
12,30:7
12,32:9
12,34:15
12,35:4
13,34:3
14,34:3
15,34:3
16,1:14
16,2:10
16,4:14
16,5:14
16,6:10
16,7:8
16,8:8
16,9:7
16,10:11
16,11:16
16,12:7
16,13:19
16,14:19
16,15:19
16,17:14
16,20:22
16,21:22
16,22:5
16,24:8
16,25:7
16,26:22
16,27:14
16,28:10
16,29:12
16,30:14
16,32:16
16,33:7
16,34:22
16,35:11
16,44:3
17,11:2
17,13:5
17,14:5
17,15:5
17,32:2
17,34:8
18,1:14
18,2:10
18,4:14
18,5:14
18,6:10
18,7:8
18,8:8
18,9:7
18,10:11
18,11:16
18,12:7
18,13:19
18,14:19
18,15:19
18,17:14
18,20:22
18,21:22
18,22:5
18,24:8
18,25:7
18,26:22
18,27:14
18,28:10
18,29:12
18,30:14
18,32:16
18,33:7
18,34:22
18,35:11
18,44:3
19,1:3
19,4:3
19,5:3
19,11:5
19,13:8
19,14:8
19,15:8
19,17:3
19,20:11
19,21:11
19,26:11
19,27:3
19,29:1
19,30:3
19,32:5
19,34:11
22,1:9
22,2:5
22,4:9
22,5:9
22,6:5
22,7:3
22,8:3
22,9:2
22,10:6
22,11:11
22,12:2
22,13:14
22,14:14
22,15:14
22,17:9
22,19:6
22,20:17
22,21:17
22,24:3
22,25:2
22,26:17
22,28:5
22,29:7
22,31:7
22,32:11
22,33:2
22,35:6
23,1:9
23,2:5
23,4:9
23,5:9
23,6:5
23,7:3
23,8:3
23,9:2
23,10:6
23,11:11
23,12:2
23,13:14
23,14:14
23,15:14
23,17:9
23,19:6
23,20:17
23,21:17
23,24:3
23,25:2
23,26:17
23,27:9
23,28:5
23,29:7
23,30:9
23,32:11
23,33:2
23,34:17
23,35:6
24,1:6
24,2:2
24,4:6
24,5:6
24,6:2
24,10:3
24,11:8
24,13:11
24,14:11
24,15:11
24,17:6
24,19:3
24,20:14
24,21:14
24,26:14
24,27:6
24,28:2
24,29:4
24,30:6
24,32:8
24,34:14
24,35:3
25,1:7
25,2:3
25,4:7
25,5:7
25,6:3
25,7:1
25,8:1
25,10:4
25,11:9
25,13:12
25,14:12
25,15:12
25,17:7
25,19:4
25,20:15
25,21:15
25,24:1
25,26:15
25,27:7
25,28:3
25,29:5
25,30:7
25,31:5
25,32:9
25,34:15
25,35:4
25,39:17
25,40:15
25,43:15
25,45:15
25,48:1
25,49:1
27,11:2
27,13:5
27,14:5
27,15:5
27,20:8
27,21:8
27,26:8
27,32:2
28,1:4
28,4:4
28,5:4
28,10:1
28,11:6
28,13:9
28,14:9
28,15:9
28,17:4
28,19:1
28,20:12
28,21:12
28,26:12
28,27:4
28,29:2
28,30:4
28,31:2
28,34:12
28,38:14
28,39:14
28,40:12
29,1:2
29,4:2
29,5:2
29,11:4
29,13:7
29,14:7
29,15:7
29,17:2
29,20:10
29,21:10
29,26:10
29,27:2
29,30:2
29,32:4
29,34:10
30,11:2
30,13:5
30,14:5
30,15:5
30,20:8
30,21:8
30,26:8
30,32:2
31,1:2
31,4:2
31,5:2
31,11:4
31,13:7
31,14:7
31,15:7
31,17:2
31,20:10
31,21:10
31,26:10
31,27:2
31,30:2
31,32:4
31,34:10
32,13:3
32,14:3
32,15:3
32,20:6
32,21:6
32,26:6
32,34:6
32,38:8
32,39:8
32,40:6
32,43:6
33,1:7
33,2:3
33,4:7
33,5:7
33,6:3
33,7:1
33,8:1
33,10:4
33,11:9
33,13:12
33,14:12
33,15:12
33,17:7
33,19:4
33,20:15
33,21:15
33,24:1
33,26:15
33,27:7
33,28:3
33,29:5
33,30:7
33,31:5
33,32:9
33,34:15
33,38:17
33,39:17
33,40:15
35,1:3
35,4:3
35,5:3
35,11:5
35,13:8
35,14:8
35,15:8
35,17:3
35,20:11
35,21:11
35,26:11
35,27:3
35,29:1
35,30:3
35,31:1
35,32:5
35,34:11
35,38:13
35,39:13
35,40:11
36,1:7
36,2:3
36,4:7
36,5:7
36,6:3
36,7:1
36,8:1
36,10:4
36,11:9
36,13:12
36,14:12
36,15:12
36,17:7
36,19:4
36,20:15
36,21:15
36,24:1
36,26:15
36,27:7
36,28:3
36,29:5
36,30:7
36,31:5
36,32:9
36,34:15
36,35:4
37,1:11
37,2:7
37,4:11
37,5:11
37,6:7
37,7:5
37,8:5
37,9:4
37,10:8
37,11:13
37,12:4
37,13:16
37,14:16
37,15:16
37,17:11
37,19:8
37,20:19
37,21:19
37,22:2
37,23:2
37,24:5
37,25:4
37,26:19
37,27:11
37,28:7
37,29:9
37,30:11
37,31:9
37,32:13
37,33:4
37,34:19
37,35:8
37,36:4
37,38:21
40,38:2
40,39:2
41,1:11
41,2:7
41,4:11
41,5:11
41,6:7
41,7:5
41,8:5
41,9:4
41,10:8
41,11:13
41,12:4
41,13:16
41,14:16
41,15:16
41,17:11
41,19:8
41,20:19
41,21:19
41,22:2
41,23:2
41,24:5
41,25:4
41,26:19
41,27:11
41,28:7
41,29:9
41,30:11
41,31:9
41,32:13
41,33:4
41,34:19
41,35:8
41,36:4
41,38:21
41,39:21
41,40:19
42,1:11
42,2:7
42,4:11
42,5:11
42,6:7
42,7:5
42,8:5
42,9:4
42,10:8
42,11:13
42,12:4
42,13:16
42,14:16
42,15:16
42,17:11
42,19:8
42,20:19
42,21:19
42,22:2
42,23:2
42,24:5
42,25:4
42,26:19
42,27:11
42,28:7
42,29:9
42,30:11
42,31:9
42,32:13
42,33:4
42,34:19
42,35:8
42,36:4
42,38:21
42,39:21
42,40:19
43,38:2
43,39:2
44,1:11
44,2:7
44,4:11
44,5:11
44,6:7
44,7:5
44,8:5
44,9:4
44,10:8
44,11:13
44,12:4
44,13:16
44,14:16
44,15:16
44,17:11
44,19:8
44,20:19
44,21:19
44,22:2
44,23:2
44,24:5
44,25:4
44,26:19
44,27:11
44,28:7
44,29:9
44,30:11
44,31:9
44,32:13
44,33:4
44,34:19
44,35:8
44,36:4
44,38:21
44,39:21
44,40:19
44,43:19
45,38:2
45,39:2
46,1:13
46,2:9
46,4:13
46,5:13
46,6:9
46,7:7
46,8:7
46,9:6
46,10:10
46,11:15
46,12:6
46,13:18
46,14:18
46,15:18
46,17:13
46,19:10
46,20:21
46,21:21
46,22:4
46,23:4
46,24:7
46,25:6
46,26:21
46,27:13
46,28:9
46,29:11
46,30:13
46,31:11
46,32:15
46,33:6
46,34:21
46,35:10
46,36:6
46,37:2
46,38:23
46,39:23
46,40:21
46,41:2
46,42:2
46,43:21
46,44:2
46,45:21
46,48:7
46,49:7
47,1:13
47,2:9
47,4:13
47,5:13
47,6:9
47,7:7
47,8:7
47,9:6
47,10:10
47,11:15
47,12:6
47,13:18
47,14:18
47,15:18
47,17:13
47,19:10
47,20:21
47,21:21
47,22:4
47,23:4
47,24:7
47,25:6
47,26:21
47,27:13
47,28:9
47,29:11
47,30:13
47,31:11
47,32:15
47,33:6
47,34:21
47,35:10
47,36:6
47,37:2
47,38:23
47,39:23
47,40:21
47,41:2
47,42:2
47,43:21
47,44:2
47,45:21
47,48:7
47,49:7
47,50:2
48,1:6
48,2:2
48,4:6
48,5:6
48,6:2
48,10:3
48,11:8
48,13:11
48,14:11
48,15:11
48,17:6
48,19:3
48,20:14
48,21:14
48,26:14
48,27:6
48,28:2
48,29:4
48,30:6
48,31:4
48,32:8
48,34:14
48,35:3
48,38:16
48,39:16
48,40:14
48,43:14
48,45:14
48,52:5
48,53:5
49,1:6
49,2:2
49,4:6
49,5:6
49,6:2
49,10:3
49,11:8
49,13:11
49,14:11
49,15:11
49,17:6
49,19:3
49,20:14
49,21:14
49,26:14
49,27:6
49,28:2
49,29:4
49,30:6
49,31:4
49,32:8
49,34:14
49,35:3
49,38:16
49,39:16
49,40:14
49,43:14
49,45:14
49,52:5
49,53:5
50,1:11
50,2:7
50,4:11
50,5:11
50,6:7
50,7:5
50,8:5
50,9:4
50,10:8
50,11:13
50,12:4
50,13:16
50,14:16
50,15:16
50,17:11
50,19:8
50,20:19
50,21:19
50,22:2
50,23:2
50,24:5
50,25:4
50,26:19
50,27:11
50,28:7
50,29:9
50,30:11
50,31:9
50,32:13
50,33:4
50,34:19
50,35:8
50,36:4
50,38:21
50,39:21
50,40:19
50,43:19
50,45:19
50,48:5
50,49:5
50,52:10
50,53:10
50,54:5
50,55:5
51,1:13
51,2:9
51,4:13
51,5:13
51,6:9
51,7:7
51,8:7
51,9:6
51,10:10
51,11:15
51,12:6
51,13:18
51,14:18
51,15:18
51,17:13
51,19:10
51,20:21
51,21:21
51,22:4
51,23:4
51,24:7
51,25:6
51,26:21
51,27:13
51,28:9
51,29:11
51,30:13
51,31:11
51,32:15
51,33:6
51,34:21
51,35:10
51,36:6
51,37:2
51,38:23
51,39:23
51,40:21
51,41:2
51,42:2
51,43:21
51,44:2
51,45:21
51,48:7
51,49:7
51,50:2
52,1:1
52,4:1
52,5:1
52,11:3
52,13:6
52,14:6
52,15:6
52,17:1
52,20:9
52,21:9
52,26:9
52,27:1
52,30:1
52,32:3
52,34:9
52,38:11
52,39:11
52,40:9
52,43:9
52,45:9
53,1:1
53,4:1
53,5:1
53,11:3
53,13:6
53,14:6
53,15:6
53,17:1
53,20:9
53,21:9
53,26:9
53,27:1
53,30:1
53,32:3
53,34:9
53,38:11
53,39:11
53,40:9
53,43:9
53,45:9
54,1:6
54,2:2
54,4:6
54,5:6
54,6:2
54,10:3
54,11:8
54,13:11
54,14:11
54,15:11
54,17:6
54,19:3
54,20:14
54,21:14
54,26:14
54,27:6
54,28:2
54,29:4
54,30:6
54,31:4
54,32:8
54,34:14
54,35:3
54,38:16
54,39:16
54,40:14
54,43:14
54,45:14
54,52:5
54,53:5
55,1:6
55,2:2
55,4:6
55,5:6
55,6:2
55,10:3
55,11:8
55,13:11
55,14:11
55,15:11
55,17:6
55,19:3
55,20:14
55,21:14
55,26:14
55,27:6
55,28:2
55,29:4
55,30:6
55,31:4
55,32:8
55,34:14
55,35:3
55,38:16
55,39:16
55,40:14
55,43:14
55,45:14
55,52:5
55,53:5
56,1:11
56,2:7
56,4:11
56,5:11
56,6:7
56,7:5
56,8:5
56,9:4
56,10:8
56,11:13
56,12:4
56,13:16
56,14:16
56,15:16
56,17:11
56,19:8
56,20:19
56,21:19
56,22:2
56,23:2
56,24:5
56,25:4
56,26:19
56,27:11
56,28:7
56,29:9
56,30:11
56,31:9
56,32:13
56,33:4
56,34:19
56,35:8
56,36:4
56,38:21
56,39:21
56,40:19
56,43:19
56,45:19
56,48:5
56,49:5
56,52:10
56,53:10
56,54:5
56,55:5
57,1:11
57,2:7
57,4:11
57,5:11
57,6:7
57,7:5
57,8:5
57,9:4
57,10:8
57,11:13
57,12:4
57,13:16
57,14:16
57,15:16
57,17:11
57,19:8
57,20:19
57,21:19
57,22:2
57,23:2
57,24:5
57,25:4
57,26:19
57,27:11
57,28:7
57,29:9
57,30:11
57,31:9
57,32:13
57,33:4
57,34:19
57,35:8
57,36:4
57,38:21
57,39:21
57,40:19
57,43:19
57,45:19
57,48:5
57,49:5
57,52:10
57,53:10
57,54:5
57,55:5
58,1:11
58,2:7
58,4:11
58,5:11
58,6:7
58,7:5
58,8:5
58,9:4
58,10:8
58,11:13
58,12:4
58,13:16
58,14:16
58,15:16
58,17:11
58,19:8
58,20:19
58,21:19
58,22:2
58,23:2
58,24:5
58,25:4
58,26:19
58,27:11
58,28:7
58,29:9
58,30:11
58,31:9
58,32:13
58,33:4
58,34:19
58,35:8
58,36:4
58,38:21
58,39:21
58,40:19
58,43:19
58,45:19
58,48:5
58,49:5
58,52:10
58,53:10
58,54:5
58,55:5

<end>

<optimal SALBP-1 value>
20


<rand seed>
467321153

<Lower Bounds>
Lm1=19
Lms1=19
Lm2=13
Lm3=13
Lm4=19
Best=19

<Optimal Stations (Iterations: 10)>
28
